[[28,190,284,664,713,1193,2067,9976,9984],[585,1361,1859,3079,3837,4472,5466,5749,7379,8158,8646,9435,9974],[817,1030,1598,3010,3435,4163,5112,6677,7626,8368,8802,9489,9873],[921,1194,1683,2151,3016,4199,4985,7443,7740,8397,8924,9619,9728],[1359,2245,2677,3069,3572,4307,4699,5745,6591,8147,8512,9423,9654],[1456,1775,2223,2594,2927,3367,5539,6394,6671,8241,9449,9680,9684],[1875,2523,2576,2626,2901,4560,6067,6481,7454,8009,8034,8109,8785],[3490,3881,4517,4531,4745,4874,5029,5474,5566,6666,6757,7048,7422]]